NAME CFLP
ROWS
 N  OBJ
 E  demand_1
 E  demand_2
 E  demand_3
 E  demand_4
 E  demand_5
 E  demand_6
 E  demand_7
 E  demand_8
 E  demand_9
 E  demand_10
 E  demand_11
 E  demand_12
 E  demand_13
 E  demand_14
 E  demand_15
 E  demand_16
 E  demand_17
 E  demand_18
 E  demand_19
 E  demand_20
 E  demand_21
 E  demand_22
 E  demand_23
 E  demand_24
 E  demand_25
 E  demand_26
 E  demand_27
 E  demand_28
 E  demand_29
 E  demand_30
 E  demand_31
 E  demand_32
 E  demand_33
 E  demand_34
 E  demand_35
 L  c_disjunction_1_diajunct_1
 L  c_disjunction_1_disjunct_2
 E  R37     
 L  c_disjunction_2_diajunct_1
 L  c_disjunction_2_disjunct_2
 E  R40     
 L  c_disjunction_3_diajunct_1
 L  c_disjunction_3_disjunct_2
 E  R43     
 L  c_disjunction_4_diajunct_1
 L  c_disjunction_4_disjunct_2
 E  R46     
 L  c_disjunction_5_diajunct_1
 L  c_disjunction_5_disjunct_2
 E  R49     
 L  c_disjunction_6_diajunct_1
 L  c_disjunction_6_disjunct_2
 E  R52     
 L  c_disjunction_7_diajunct_1
 L  c_disjunction_7_disjunct_2
 E  R55     
 L  c_disjunction_8_diajunct_1
 L  c_disjunction_8_disjunct_2
 E  R58     
 L  c_disjunction_9_diajunct_1
 L  c_disjunction_9_disjunct_2
 E  R61     
 L  c_disjunction_10_diajunct_1
 L  c_disjunction_10_disjunct_2
 E  R64     
 L  c_disjunction_11_diajunct_1
 L  c_disjunction_11_disjunct_2
 E  R67     
 L  c_disjunction_12_diajunct_1
 L  c_disjunction_12_disjunct_2
 E  R70     
 L  c_disjunction_13_diajunct_1
 L  c_disjunction_13_disjunct_2
 E  R73     
 L  c_disjunction_14_diajunct_1
 L  c_disjunction_14_disjunct_2
 E  R76     
 L  c_disjunction_15_diajunct_1
 L  c_disjunction_15_disjunct_2
 E  R79     
 L  c_disjunction_16_diajunct_1
 L  c_disjunction_16_disjunct_2
 E  R82     
 L  c_disjunction_17_diajunct_1
 L  c_disjunction_17_disjunct_2
 E  R85     
 L  c_disjunction_18_diajunct_1
 L  c_disjunction_18_disjunct_2
 E  R88     
 L  c_disjunction_19_diajunct_1
 L  c_disjunction_19_disjunct_2
 E  R91     
 L  c_disjunction_20_diajunct_1
 L  c_disjunction_20_disjunct_2
 E  R94     
 L  c_disjunction_21_diajunct_1
 L  c_disjunction_21_disjunct_2
 E  R97     
 L  c_disjunction_22_diajunct_1
 L  c_disjunction_22_disjunct_2
 E  R100    
 L  c_disjunction_23_diajunct_1
 L  c_disjunction_23_disjunct_2
 E  R103    
 L  c_disjunction_24_diajunct_1
 L  c_disjunction_24_disjunct_2
 E  R106    
 L  c_disjunction_25_diajunct_1
 L  c_disjunction_25_disjunct_2
 E  R109    
 L  c_disjunction_26_diajunct_1
 L  c_disjunction_26_disjunct_2
 E  R112    
 L  c_disjunction_27_diajunct_1
 L  c_disjunction_27_disjunct_2
 E  R115    
 L  c_disjunction_28_diajunct_1
 L  c_disjunction_28_disjunct_2
 E  R118    
 L  c_disjunction_29_diajunct_1
 L  c_disjunction_29_disjunct_2
 E  R121    
 L  c_disjunction_30_diajunct_1
 L  c_disjunction_30_disjunct_2
 E  R124    
 L  c_disjunction_31_diajunct_1
 L  c_disjunction_31_disjunct_2
 E  R127    
 L  c_disjunction_32_diajunct_1
 L  c_disjunction_32_disjunct_2
 E  R130    
 L  c_disjunction_33_diajunct_1
 L  c_disjunction_33_disjunct_2
 E  R133    
 L  c_disjunction_34_diajunct_1
 L  c_disjunction_34_disjunct_2
 E  R136    
 L  c_disjunction_35_diajunct_1
 L  c_disjunction_35_disjunct_2
 E  R139    
COLUMNS
    MARKER    'MARKER'                 'INTORG'
    ind_disjunction_1_disjunct_1  OBJ       1179
    ind_disjunction_1_disjunct_1  c_disjunction_1_diajunct_1  -117
    ind_disjunction_1_disjunct_1  R37       1
    ind_disjunction_2_disjunct_1  OBJ       1179
    ind_disjunction_2_disjunct_1  c_disjunction_2_diajunct_1  -117
    ind_disjunction_2_disjunct_1  R40       1
    ind_disjunction_3_disjunct_1  OBJ       1179
    ind_disjunction_3_disjunct_1  c_disjunction_3_diajunct_1  -117
    ind_disjunction_3_disjunct_1  R43       1
    ind_disjunction_4_disjunct_1  OBJ       1179
    ind_disjunction_4_disjunct_1  c_disjunction_4_diajunct_1  -117
    ind_disjunction_4_disjunct_1  R46       1
    ind_disjunction_5_disjunct_1  OBJ       1179
    ind_disjunction_5_disjunct_1  c_disjunction_5_diajunct_1  -117
    ind_disjunction_5_disjunct_1  R49       1
    ind_disjunction_6_disjunct_1  OBJ       1179
    ind_disjunction_6_disjunct_1  c_disjunction_6_diajunct_1  -117
    ind_disjunction_6_disjunct_1  R52       1
    ind_disjunction_7_disjunct_1  OBJ       1179
    ind_disjunction_7_disjunct_1  c_disjunction_7_diajunct_1  -117
    ind_disjunction_7_disjunct_1  R55       1
    ind_disjunction_8_disjunct_1  OBJ       1179
    ind_disjunction_8_disjunct_1  c_disjunction_8_diajunct_1  -117
    ind_disjunction_8_disjunct_1  R58       1
    ind_disjunction_9_disjunct_1  OBJ       1179
    ind_disjunction_9_disjunct_1  c_disjunction_9_diajunct_1  -117
    ind_disjunction_9_disjunct_1  R61       1
    ind_disjunction_10_disjunct_1  OBJ       1179
    ind_disjunction_10_disjunct_1  c_disjunction_10_diajunct_1  -117
    ind_disjunction_10_disjunct_1  R64       1
    ind_disjunction_11_disjunct_1  OBJ       1179
    ind_disjunction_11_disjunct_1  c_disjunction_11_diajunct_1  -117
    ind_disjunction_11_disjunct_1  R67       1
    ind_disjunction_12_disjunct_1  OBJ       1179
    ind_disjunction_12_disjunct_1  c_disjunction_12_diajunct_1  -117
    ind_disjunction_12_disjunct_1  R70       1
    ind_disjunction_13_disjunct_1  OBJ       1179
    ind_disjunction_13_disjunct_1  c_disjunction_13_diajunct_1  -117
    ind_disjunction_13_disjunct_1  R73       1
    ind_disjunction_14_disjunct_1  OBJ       1179
    ind_disjunction_14_disjunct_1  c_disjunction_14_diajunct_1  -117
    ind_disjunction_14_disjunct_1  R76       1
    ind_disjunction_15_disjunct_1  OBJ       1179
    ind_disjunction_15_disjunct_1  c_disjunction_15_diajunct_1  -117
    ind_disjunction_15_disjunct_1  R79       1
    ind_disjunction_16_disjunct_1  OBJ       1179
    ind_disjunction_16_disjunct_1  c_disjunction_16_diajunct_1  -117
    ind_disjunction_16_disjunct_1  R82       1
    ind_disjunction_17_disjunct_1  OBJ       1179
    ind_disjunction_17_disjunct_1  c_disjunction_17_diajunct_1  -117
    ind_disjunction_17_disjunct_1  R85       1
    ind_disjunction_18_disjunct_1  OBJ       1179
    ind_disjunction_18_disjunct_1  c_disjunction_18_diajunct_1  -117
    ind_disjunction_18_disjunct_1  R88       1
    ind_disjunction_19_disjunct_1  OBJ       1179
    ind_disjunction_19_disjunct_1  c_disjunction_19_diajunct_1  -117
    ind_disjunction_19_disjunct_1  R91       1
    ind_disjunction_20_disjunct_1  OBJ       1179
    ind_disjunction_20_disjunct_1  c_disjunction_20_diajunct_1  -117
    ind_disjunction_20_disjunct_1  R94       1
    ind_disjunction_21_disjunct_1  OBJ       1179
    ind_disjunction_21_disjunct_1  c_disjunction_21_diajunct_1  -117
    ind_disjunction_21_disjunct_1  R97       1
    ind_disjunction_22_disjunct_1  OBJ       1179
    ind_disjunction_22_disjunct_1  c_disjunction_22_diajunct_1  -117
    ind_disjunction_22_disjunct_1  R100      1
    ind_disjunction_23_disjunct_1  OBJ       1179
    ind_disjunction_23_disjunct_1  c_disjunction_23_diajunct_1  -117
    ind_disjunction_23_disjunct_1  R103      1
    ind_disjunction_24_disjunct_1  OBJ       1179
    ind_disjunction_24_disjunct_1  c_disjunction_24_diajunct_1  -117
    ind_disjunction_24_disjunct_1  R106      1
    ind_disjunction_25_disjunct_1  OBJ       1179
    ind_disjunction_25_disjunct_1  c_disjunction_25_diajunct_1  -117
    ind_disjunction_25_disjunct_1  R109      1
    ind_disjunction_26_disjunct_1  OBJ       1179
    ind_disjunction_26_disjunct_1  c_disjunction_26_diajunct_1  -117
    ind_disjunction_26_disjunct_1  R112      1
    ind_disjunction_27_disjunct_1  OBJ       1179
    ind_disjunction_27_disjunct_1  c_disjunction_27_diajunct_1  -117
    ind_disjunction_27_disjunct_1  R115      1
    ind_disjunction_28_disjunct_1  OBJ       1179
    ind_disjunction_28_disjunct_1  c_disjunction_28_diajunct_1  -117
    ind_disjunction_28_disjunct_1  R118      1
    ind_disjunction_29_disjunct_1  OBJ       1179
    ind_disjunction_29_disjunct_1  c_disjunction_29_diajunct_1  -117
    ind_disjunction_29_disjunct_1  R121      1
    ind_disjunction_30_disjunct_1  OBJ       1179
    ind_disjunction_30_disjunct_1  c_disjunction_30_diajunct_1  -117
    ind_disjunction_30_disjunct_1  R124      1
    ind_disjunction_31_disjunct_1  OBJ       1179
    ind_disjunction_31_disjunct_1  c_disjunction_31_diajunct_1  -117
    ind_disjunction_31_disjunct_1  R127      1
    ind_disjunction_32_disjunct_1  OBJ       1179
    ind_disjunction_32_disjunct_1  c_disjunction_32_diajunct_1  -117
    ind_disjunction_32_disjunct_1  R130      1
    ind_disjunction_33_disjunct_1  OBJ       1179
    ind_disjunction_33_disjunct_1  c_disjunction_33_diajunct_1  -117
    ind_disjunction_33_disjunct_1  R133      1
    ind_disjunction_34_disjunct_1  OBJ       1179
    ind_disjunction_34_disjunct_1  c_disjunction_34_diajunct_1  -117
    ind_disjunction_34_disjunct_1  R136      1
    ind_disjunction_35_disjunct_1  OBJ       1179
    ind_disjunction_35_disjunct_1  c_disjunction_35_diajunct_1  -117
    ind_disjunction_35_disjunct_1  R139      1
    ind_disjunction_1_disjunct_2  c_disjunction_1_disjunct_2  3
    ind_disjunction_1_disjunct_2  R37       1
    ind_disjunction_2_disjunct_2  c_disjunction_2_disjunct_2  4
    ind_disjunction_2_disjunct_2  R40       1
    ind_disjunction_3_disjunct_2  c_disjunction_3_disjunct_2  1
    ind_disjunction_3_disjunct_2  R43       1
    ind_disjunction_4_disjunct_2  c_disjunction_4_disjunct_2  5
    ind_disjunction_4_disjunct_2  R46       1
    ind_disjunction_5_disjunct_2  c_disjunction_5_disjunct_2  2
    ind_disjunction_5_disjunct_2  R49       1
    ind_disjunction_6_disjunct_2  c_disjunction_6_disjunct_2  1
    ind_disjunction_6_disjunct_2  R52       1
    ind_disjunction_7_disjunct_2  c_disjunction_7_disjunct_2  2
    ind_disjunction_7_disjunct_2  R55       1
    ind_disjunction_8_disjunct_2  c_disjunction_8_disjunct_2  3
    ind_disjunction_8_disjunct_2  R58       1
    ind_disjunction_9_disjunct_2  c_disjunction_9_disjunct_2  3
    ind_disjunction_9_disjunct_2  R61       1
    ind_disjunction_10_disjunct_2  c_disjunction_10_disjunct_2  3
    ind_disjunction_10_disjunct_2  R64       1
    ind_disjunction_11_disjunct_2  c_disjunction_11_disjunct_2  2
    ind_disjunction_11_disjunct_2  R67       1
    ind_disjunction_12_disjunct_2  c_disjunction_12_disjunct_2  2
    ind_disjunction_12_disjunct_2  R70       1
    ind_disjunction_13_disjunct_2  c_disjunction_13_disjunct_2  4
    ind_disjunction_13_disjunct_2  R73       1
    ind_disjunction_14_disjunct_2  c_disjunction_14_disjunct_2  2
    ind_disjunction_14_disjunct_2  R76       1
    ind_disjunction_15_disjunct_2  c_disjunction_15_disjunct_2  1
    ind_disjunction_15_disjunct_2  R79       1
    ind_disjunction_16_disjunct_2  c_disjunction_16_disjunct_2  6
    ind_disjunction_16_disjunct_2  R82       1
    ind_disjunction_17_disjunct_2  c_disjunction_17_disjunct_2  2
    ind_disjunction_17_disjunct_2  R85       1
    ind_disjunction_18_disjunct_2  c_disjunction_18_disjunct_2  3
    ind_disjunction_18_disjunct_2  R88       1
    ind_disjunction_19_disjunct_2  c_disjunction_19_disjunct_2  4
    ind_disjunction_19_disjunct_2  R91       1
    ind_disjunction_20_disjunct_2  c_disjunction_20_disjunct_2  2
    ind_disjunction_20_disjunct_2  R94       1
    ind_disjunction_21_disjunct_2  c_disjunction_21_disjunct_2  2
    ind_disjunction_21_disjunct_2  R97       1
    ind_disjunction_22_disjunct_2  c_disjunction_22_disjunct_2  4
    ind_disjunction_22_disjunct_2  R100      1
    ind_disjunction_23_disjunct_2  c_disjunction_23_disjunct_2  4
    ind_disjunction_23_disjunct_2  R103      1
    ind_disjunction_24_disjunct_2  c_disjunction_24_disjunct_2  4
    ind_disjunction_24_disjunct_2  R106      1
    ind_disjunction_25_disjunct_2  c_disjunction_25_disjunct_2  2
    ind_disjunction_25_disjunct_2  R109      1
    ind_disjunction_26_disjunct_2  c_disjunction_26_disjunct_2  4
    ind_disjunction_26_disjunct_2  R112      1
    ind_disjunction_27_disjunct_2  c_disjunction_27_disjunct_2  4
    ind_disjunction_27_disjunct_2  R115      1
    ind_disjunction_28_disjunct_2  c_disjunction_28_disjunct_2  2
    ind_disjunction_28_disjunct_2  R118      1
    ind_disjunction_29_disjunct_2  c_disjunction_29_disjunct_2  1
    ind_disjunction_29_disjunct_2  R121      1
    ind_disjunction_30_disjunct_2  c_disjunction_30_disjunct_2  4
    ind_disjunction_30_disjunct_2  R124      1
    ind_disjunction_31_disjunct_2  c_disjunction_31_disjunct_2  4
    ind_disjunction_31_disjunct_2  R127      1
    ind_disjunction_32_disjunct_2  c_disjunction_32_disjunct_2  4
    ind_disjunction_32_disjunct_2  R130      1
    ind_disjunction_33_disjunct_2  c_disjunction_33_disjunct_2  3
    ind_disjunction_33_disjunct_2  R133      1
    ind_disjunction_34_disjunct_2  c_disjunction_34_disjunct_2  4
    ind_disjunction_34_disjunct_2  R136      1
    ind_disjunction_35_disjunct_2  c_disjunction_35_disjunct_2  4
    ind_disjunction_35_disjunct_2  R139      1
    x[1,1]    demand_1  1
    x[1,1]    c_disjunction_1_diajunct_1  26
    x[1,1]    c_disjunction_1_disjunct_2  1
    x[2,1]    OBJ       27.8
    x[2,1]    demand_1  1
    x[2,1]    c_disjunction_2_diajunct_1  26
    x[2,1]    c_disjunction_2_disjunct_2  1
    x[33,1]   OBJ       43.7
    x[33,1]   demand_1  1
    x[33,1]   c_disjunction_33_diajunct_1  26
    x[33,1]   c_disjunction_33_disjunct_2  1
    x[2,2]    demand_2  1
    x[2,2]    c_disjunction_2_diajunct_1  32
    x[2,2]    c_disjunction_2_disjunct_2  1
    x[33,2]   OBJ       20.6
    x[33,2]   demand_2  1
    x[33,2]   c_disjunction_33_diajunct_1  32
    x[33,2]   c_disjunction_33_disjunct_2  1
    x[1,2]    OBJ       34.2
    x[1,2]    demand_2  1
    x[1,2]    c_disjunction_1_diajunct_1  32
    x[1,2]    c_disjunction_1_disjunct_2  1
    x[3,3]    demand_3  1
    x[3,3]    c_disjunction_3_diajunct_1  25
    x[3,3]    c_disjunction_3_disjunct_2  1
    x[13,3]   OBJ       41.4
    x[13,3]   demand_3  1
    x[13,3]   c_disjunction_13_diajunct_1  25
    x[13,3]   c_disjunction_13_disjunct_2  1
    x[23,3]   OBJ       48.8
    x[23,3]   demand_3  1
    x[23,3]   c_disjunction_23_diajunct_1  25
    x[23,3]   c_disjunction_23_disjunct_2  1
    x[4,4]    demand_4  1
    x[4,4]    c_disjunction_4_diajunct_1  22
    x[4,4]    c_disjunction_4_disjunct_2  1
    x[22,4]   OBJ       4.6
    x[22,4]   demand_4  1
    x[22,4]   c_disjunction_22_diajunct_1  22
    x[22,4]   c_disjunction_22_disjunct_2  1
    x[32,4]   OBJ       10.5
    x[32,4]   demand_4  1
    x[32,4]   c_disjunction_32_diajunct_1  22
    x[32,4]   c_disjunction_32_disjunct_2  1
    x[5,5]    demand_5  1
    x[5,5]    c_disjunction_5_diajunct_1  30
    x[5,5]    c_disjunction_5_disjunct_2  1
    x[34,5]   OBJ       29.8
    x[34,5]   demand_5  1
    x[34,5]   c_disjunction_34_diajunct_1  30
    x[34,5]   c_disjunction_34_disjunct_2  1
    x[10,5]   OBJ       33.3
    x[10,5]   demand_5  1
    x[10,5]   c_disjunction_10_diajunct_1  30
    x[10,5]   c_disjunction_10_disjunct_2  1
    x[6,6]    demand_6  1
    x[6,6]    c_disjunction_6_diajunct_1  19
    x[6,6]    c_disjunction_6_disjunct_2  1
    x[35,6]   OBJ       32.3
    x[35,6]   demand_6  1
    x[35,6]   c_disjunction_35_diajunct_1  19
    x[35,6]   c_disjunction_35_disjunct_2  1
    x[27,6]   OBJ       35.7
    x[27,6]   demand_6  1
    x[27,6]   c_disjunction_27_diajunct_1  19
    x[27,6]   c_disjunction_27_disjunct_2  1
    x[7,7]    demand_7  1
    x[7,7]    c_disjunction_7_diajunct_1  17
    x[7,7]    c_disjunction_7_disjunct_2  1
    x[16,7]   OBJ       17.4
    x[16,7]   demand_7  1
    x[16,7]   c_disjunction_16_diajunct_1  17
    x[16,7]   c_disjunction_16_disjunct_2  1
    x[24,7]   OBJ       18.5
    x[24,7]   demand_7  1
    x[24,7]   c_disjunction_24_diajunct_1  17
    x[24,7]   c_disjunction_24_disjunct_2  1
    x[8,8]    demand_8  1
    x[8,8]    c_disjunction_8_diajunct_1  6
    x[8,8]    c_disjunction_8_disjunct_2  1
    x[34,8]   OBJ       4.7
    x[34,8]   demand_8  1
    x[34,8]   c_disjunction_34_diajunct_1  6
    x[34,8]   c_disjunction_34_disjunct_2  1
    x[11,8]   OBJ       5.5
    x[11,8]   demand_8  1
    x[11,8]   c_disjunction_11_diajunct_1  6
    x[11,8]   c_disjunction_11_disjunct_2  1
    x[9,9]    demand_9  1
    x[9,9]    c_disjunction_9_diajunct_1  21
    x[9,9]    c_disjunction_9_disjunct_2  1
    x[28,9]   OBJ       8
    x[28,9]   demand_9  1
    x[28,9]   c_disjunction_28_diajunct_1  21
    x[28,9]   c_disjunction_28_disjunct_2  1
    x[16,9]   OBJ       34
    x[16,9]   demand_9  1
    x[16,9]   c_disjunction_16_diajunct_1  21
    x[16,9]   c_disjunction_16_disjunct_2  1
    x[10,10]  demand_10  1
    x[10,10]  c_disjunction_10_diajunct_1  13
    x[10,10]  c_disjunction_10_disjunct_2  1
    x[34,10]  OBJ       9.1
    x[34,10]  demand_10  1
    x[34,10]  c_disjunction_34_diajunct_1  13
    x[34,10]  c_disjunction_34_disjunct_2  1
    x[30,10]  OBJ       13.9
    x[30,10]  demand_10  1
    x[30,10]  c_disjunction_30_diajunct_1  13
    x[30,10]  c_disjunction_30_disjunct_2  1
    x[11,11]  demand_11  1
    x[11,11]  c_disjunction_11_diajunct_1  10
    x[11,11]  c_disjunction_11_disjunct_2  1
    x[8,11]   OBJ       9.1
    x[8,11]   demand_11  1
    x[8,11]   c_disjunction_8_diajunct_1  10
    x[8,11]   c_disjunction_8_disjunct_2  1
    x[26,11]  OBJ       10.7
    x[26,11]  demand_11  1
    x[26,11]  c_disjunction_26_diajunct_1  10
    x[26,11]  c_disjunction_26_disjunct_2  1
    x[12,12]  demand_12  1
    x[12,12]  c_disjunction_12_diajunct_1  32
    x[12,12]  c_disjunction_12_disjunct_2  1
    x[7,12]   OBJ       42.4
    x[7,12]   demand_12  1
    x[7,12]   c_disjunction_7_diajunct_1  32
    x[7,12]   c_disjunction_7_disjunct_2  1
    x[21,12]  OBJ       54.1
    x[21,12]  demand_12  1
    x[21,12]  c_disjunction_21_diajunct_1  32
    x[21,12]  c_disjunction_21_disjunct_2  1
    x[13,13]  demand_13  1
    x[13,13]  c_disjunction_13_diajunct_1  19
    x[13,13]  c_disjunction_13_disjunct_2  1
    x[30,13]  OBJ       19
    x[30,13]  demand_13  1
    x[30,13]  c_disjunction_30_diajunct_1  19
    x[30,13]  c_disjunction_30_disjunct_2  1
    x[23,13]  OBJ       27.9
    x[23,13]  demand_13  1
    x[23,13]  c_disjunction_23_diajunct_1  19
    x[23,13]  c_disjunction_23_disjunct_2  1
    x[14,14]  demand_14  1
    x[14,14]  c_disjunction_14_diajunct_1  5
    x[14,14]  c_disjunction_14_disjunct_2  1
    x[19,14]  OBJ       6.5
    x[19,14]  demand_14  1
    x[19,14]  c_disjunction_19_diajunct_1  5
    x[19,14]  c_disjunction_19_disjunct_2  1
    x[31,14]  OBJ       14.3
    x[31,14]  demand_14  1
    x[31,14]  c_disjunction_31_diajunct_1  5
    x[31,14]  c_disjunction_31_disjunct_2  1
    x[15,15]  demand_15  1
    x[15,15]  c_disjunction_15_diajunct_1  12
    x[15,15]  c_disjunction_15_disjunct_2  1
    x[4,15]   OBJ       10.3
    x[4,15]   demand_15  1
    x[4,15]   c_disjunction_4_diajunct_1  12
    x[4,15]   c_disjunction_4_disjunct_2  1
    x[22,15]  OBJ       12.8
    x[22,15]  demand_15  1
    x[22,15]  c_disjunction_22_diajunct_1  12
    x[22,15]  c_disjunction_22_disjunct_2  1
    x[16,16]  demand_16  1
    x[16,16]  c_disjunction_16_diajunct_1  20
    x[16,16]  c_disjunction_16_disjunct_2  1
    x[18,16]  OBJ       3.1
    x[18,16]  demand_16  1
    x[18,16]  c_disjunction_18_diajunct_1  20
    x[18,16]  c_disjunction_18_disjunct_2  1
    x[24,16]  OBJ       5
    x[24,16]  demand_16  1
    x[24,16]  c_disjunction_24_diajunct_1  20
    x[24,16]  c_disjunction_24_disjunct_2  1
    x[17,17]  demand_17  1
    x[17,17]  c_disjunction_17_diajunct_1  30
    x[17,17]  c_disjunction_17_disjunct_2  1
    x[31,17]  OBJ       23.1
    x[31,17]  demand_17  1
    x[31,17]  c_disjunction_31_diajunct_1  30
    x[31,17]  c_disjunction_31_disjunct_2  1
    x[19,17]  OBJ       67.6
    x[19,17]  demand_17  1
    x[19,17]  c_disjunction_19_diajunct_1  30
    x[19,17]  c_disjunction_19_disjunct_2  1
    x[18,18]  demand_18  1
    x[18,18]  c_disjunction_18_diajunct_1  27
    x[18,18]  c_disjunction_18_disjunct_2  1
    x[24,18]  OBJ       3
    x[24,18]  demand_18  1
    x[24,18]  c_disjunction_24_diajunct_1  27
    x[24,18]  c_disjunction_24_disjunct_2  1
    x[16,18]  OBJ       4.2
    x[16,18]  demand_18  1
    x[16,18]  c_disjunction_16_diajunct_1  27
    x[16,18]  c_disjunction_16_disjunct_2  1
    x[19,19]  demand_19  1
    x[19,19]  c_disjunction_19_diajunct_1  17
    x[19,19]  c_disjunction_19_disjunct_2  1
    x[14,19]  OBJ       22.2
    x[14,19]  demand_19  1
    x[14,19]  c_disjunction_14_diajunct_1  17
    x[14,19]  c_disjunction_14_disjunct_2  1
    x[31,19]  OBJ       32.6
    x[31,19]  demand_19  1
    x[31,19]  c_disjunction_31_diajunct_1  17
    x[31,19]  c_disjunction_31_disjunct_2  1
    x[20,20]  demand_20  1
    x[20,20]  c_disjunction_20_diajunct_1  25
    x[20,20]  c_disjunction_20_disjunct_2  1
    x[25,20]  OBJ       41.5
    x[25,20]  demand_20  1
    x[25,20]  c_disjunction_25_diajunct_1  25
    x[25,20]  c_disjunction_25_disjunct_2  1
    x[9,20]   OBJ       46.6
    x[9,20]   demand_20  1
    x[9,20]   c_disjunction_9_diajunct_1  25
    x[9,20]   c_disjunction_9_disjunct_2  1
    x[21,21]  demand_21  1
    x[21,21]  c_disjunction_21_diajunct_1  35
    x[21,21]  c_disjunction_21_disjunct_2  1
    x[12,21]  OBJ       59.2
    x[12,21]  demand_21  1
    x[12,21]  c_disjunction_12_diajunct_1  35
    x[12,21]  c_disjunction_12_disjunct_2  1
    x[2,21]   OBJ       61.9
    x[2,21]   demand_21  1
    x[2,21]   c_disjunction_2_diajunct_1  35
    x[2,21]   c_disjunction_2_disjunct_2  1
    x[22,22]  demand_22  1
    x[22,22]  c_disjunction_22_diajunct_1  6
    x[22,22]  c_disjunction_22_disjunct_2  1
    x[4,22]   OBJ       1.2
    x[4,22]   demand_22  1
    x[4,22]   c_disjunction_4_diajunct_1  6
    x[4,22]   c_disjunction_4_disjunct_2  1
    x[32,22]  OBJ       2.3
    x[32,22]  demand_22  1
    x[32,22]  c_disjunction_32_diajunct_1  6
    x[32,22]  c_disjunction_32_disjunct_2  1
    x[23,23]  demand_23  1
    x[23,23]  c_disjunction_23_diajunct_1  34
    x[23,23]  c_disjunction_23_disjunct_2  1
    x[30,23]  OBJ       28.4
    x[30,23]  demand_23  1
    x[30,23]  c_disjunction_30_diajunct_1  34
    x[30,23]  c_disjunction_30_disjunct_2  1
    x[13,23]  OBJ       50
    x[13,23]  demand_23  1
    x[13,23]  c_disjunction_13_diajunct_1  34
    x[13,23]  c_disjunction_13_disjunct_2  1
    x[24,24]  demand_24  1
    x[24,24]  c_disjunction_24_diajunct_1  14
    x[24,24]  c_disjunction_24_disjunct_2  1
    x[18,24]  OBJ       1.6
    x[18,24]  demand_24  1
    x[18,24]  c_disjunction_18_diajunct_1  14
    x[18,24]  c_disjunction_18_disjunct_2  1
    x[16,24]  OBJ       3.5
    x[16,24]  demand_24  1
    x[16,24]  c_disjunction_16_diajunct_1  14
    x[16,24]  c_disjunction_16_disjunct_2  1
    x[25,25]  demand_25  1
    x[25,25]  c_disjunction_25_diajunct_1  25
    x[25,25]  c_disjunction_25_disjunct_2  1
    x[20,25]  OBJ       41.5
    x[20,25]  demand_25  1
    x[20,25]  c_disjunction_20_diajunct_1  25
    x[20,25]  c_disjunction_20_disjunct_2  1
    x[5,25]   OBJ       54.4
    x[5,25]   demand_25  1
    x[5,25]   c_disjunction_5_diajunct_1  25
    x[5,25]   c_disjunction_5_disjunct_2  1
    x[26,26]  demand_26  1
    x[26,26]  c_disjunction_26_diajunct_1  19
    x[26,26]  c_disjunction_26_disjunct_2  1
    x[27,26]  OBJ       8.4
    x[27,26]  demand_26  1
    x[27,26]  c_disjunction_27_diajunct_1  19
    x[27,26]  c_disjunction_27_disjunct_2  1
    x[35,26]  OBJ       15.3
    x[35,26]  demand_26  1
    x[35,26]  c_disjunction_35_diajunct_1  19
    x[35,26]  c_disjunction_35_disjunct_2  1
    x[27,27]  demand_27  1
    x[27,27]  c_disjunction_27_diajunct_1  12
    x[27,27]  c_disjunction_27_disjunct_2  1
    x[26,27]  OBJ       5.3
    x[26,27]  demand_27  1
    x[26,27]  c_disjunction_26_diajunct_1  12
    x[26,27]  c_disjunction_26_disjunct_2  1
    x[35,27]  OBJ       6.3
    x[35,27]  demand_27  1
    x[35,27]  c_disjunction_35_diajunct_1  12
    x[35,27]  c_disjunction_35_disjunct_2  1
    x[28,28]  demand_28  1
    x[28,28]  c_disjunction_28_diajunct_1  21
    x[28,28]  c_disjunction_28_disjunct_2  1
    x[9,28]   OBJ       8
    x[9,28]   demand_28  1
    x[9,28]   c_disjunction_9_diajunct_1  21
    x[9,28]   c_disjunction_9_disjunct_2  1
    x[16,28]  OBJ       26.6
    x[16,28]  demand_28  1
    x[16,28]  c_disjunction_16_diajunct_1  21
    x[16,28]  c_disjunction_16_disjunct_2  1
    x[29,29]  demand_29  1
    x[29,29]  c_disjunction_29_diajunct_1  27
    x[29,29]  c_disjunction_29_disjunct_2  1
    x[32,29]  OBJ       42.5
    x[32,29]  demand_29  1
    x[32,29]  c_disjunction_32_diajunct_1  27
    x[32,29]  c_disjunction_32_disjunct_2  1
    x[4,29]   OBJ       50
    x[4,29]   demand_29  1
    x[4,29]   c_disjunction_4_diajunct_1  27
    x[4,29]   c_disjunction_4_disjunct_2  1
    x[30,30]  demand_30  1
    x[30,30]  c_disjunction_30_diajunct_1  23
    x[30,30]  c_disjunction_30_disjunct_2  1
    x[23,30]  OBJ       19.2
    x[23,30]  demand_30  1
    x[23,30]  c_disjunction_23_diajunct_1  23
    x[23,30]  c_disjunction_23_disjunct_2  1
    x[13,30]  OBJ       23.1
    x[13,30]  demand_30  1
    x[13,30]  c_disjunction_13_diajunct_1  23
    x[13,30]  c_disjunction_13_disjunct_2  1
    x[31,31]  demand_31  1
    x[31,31]  c_disjunction_31_diajunct_1  5
    x[31,31]  c_disjunction_31_disjunct_2  1
    x[17,31]  OBJ       3.8
    x[17,31]  demand_31  1
    x[17,31]  c_disjunction_17_diajunct_1  5
    x[17,31]  c_disjunction_17_disjunct_2  1
    x[19,31]  OBJ       9.6
    x[19,31]  demand_31  1
    x[19,31]  c_disjunction_19_diajunct_1  5
    x[19,31]  c_disjunction_19_disjunct_2  1
    x[32,32]  demand_32  1
    x[32,32]  c_disjunction_32_diajunct_1  17
    x[32,32]  c_disjunction_32_disjunct_2  1
    x[22,32]  OBJ       6.6
    x[22,32]  demand_32  1
    x[22,32]  c_disjunction_22_diajunct_1  17
    x[22,32]  c_disjunction_22_disjunct_2  1
    x[4,32]   OBJ       8.1
    x[4,32]   demand_32  1
    x[4,32]   c_disjunction_4_diajunct_1  17
    x[4,32]   c_disjunction_4_disjunct_2  1
    x[33,33]  demand_33  1
    x[33,33]  c_disjunction_33_diajunct_1  7
    x[33,33]  c_disjunction_33_disjunct_2  1
    x[2,33]   OBJ       4.5
    x[2,33]   demand_33  1
    x[2,33]   c_disjunction_2_diajunct_1  7
    x[2,33]   c_disjunction_2_disjunct_2  1
    x[1,33]   OBJ       11.8
    x[1,33]   demand_33  1
    x[1,33]   c_disjunction_1_diajunct_1  7
    x[1,33]   c_disjunction_1_disjunct_2  1
    x[34,34]  demand_34  1
    x[34,34]  c_disjunction_34_diajunct_1  9
    x[34,34]  c_disjunction_34_disjunct_2  1
    x[10,34]  OBJ       6.3
    x[10,34]  demand_34  1
    x[10,34]  c_disjunction_10_diajunct_1  9
    x[10,34]  c_disjunction_10_disjunct_2  1
    x[8,34]   OBJ       7.1
    x[8,34]   demand_34  1
    x[8,34]   c_disjunction_8_diajunct_1  9
    x[8,34]   c_disjunction_8_disjunct_2  1
    x[35,35]  demand_35  1
    x[35,35]  c_disjunction_35_diajunct_1  21
    x[35,35]  c_disjunction_35_disjunct_2  1
    x[27,35]  OBJ       11.1
    x[27,35]  demand_35  1
    x[27,35]  c_disjunction_27_diajunct_1  21
    x[27,35]  c_disjunction_27_disjunct_2  1
    x[26,35]  OBJ       16.9
    x[26,35]  demand_35  1
    x[26,35]  c_disjunction_26_diajunct_1  21
    x[26,35]  c_disjunction_26_disjunct_2  1
    MARKER    'MARKER'                 'INTEND'
RHS
    RHS1      demand_1  1
    RHS1      demand_2  1
    RHS1      demand_3  1
    RHS1      demand_4  1
    RHS1      demand_5  1
    RHS1      demand_6  1
    RHS1      demand_7  1
    RHS1      demand_8  1
    RHS1      demand_9  1
    RHS1      demand_10  1
    RHS1      demand_11  1
    RHS1      demand_12  1
    RHS1      demand_13  1
    RHS1      demand_14  1
    RHS1      demand_15  1
    RHS1      demand_16  1
    RHS1      demand_17  1
    RHS1      demand_18  1
    RHS1      demand_19  1
    RHS1      demand_20  1
    RHS1      demand_21  1
    RHS1      demand_22  1
    RHS1      demand_23  1
    RHS1      demand_24  1
    RHS1      demand_25  1
    RHS1      demand_26  1
    RHS1      demand_27  1
    RHS1      demand_28  1
    RHS1      demand_29  1
    RHS1      demand_30  1
    RHS1      demand_31  1
    RHS1      demand_32  1
    RHS1      demand_33  1
    RHS1      demand_34  1
    RHS1      demand_35  1
    RHS1      c_disjunction_1_disjunct_2  3
    RHS1      R37       1
    RHS1      c_disjunction_2_disjunct_2  4
    RHS1      R40       1
    RHS1      c_disjunction_3_disjunct_2  1
    RHS1      R43       1
    RHS1      c_disjunction_4_disjunct_2  5
    RHS1      R46       1
    RHS1      c_disjunction_5_disjunct_2  2
    RHS1      R49       1
    RHS1      c_disjunction_6_disjunct_2  1
    RHS1      R52       1
    RHS1      c_disjunction_7_disjunct_2  2
    RHS1      R55       1
    RHS1      c_disjunction_8_disjunct_2  3
    RHS1      R58       1
    RHS1      c_disjunction_9_disjunct_2  3
    RHS1      R61       1
    RHS1      c_disjunction_10_disjunct_2  3
    RHS1      R64       1
    RHS1      c_disjunction_11_disjunct_2  2
    RHS1      R67       1
    RHS1      c_disjunction_12_disjunct_2  2
    RHS1      R70       1
    RHS1      c_disjunction_13_disjunct_2  4
    RHS1      R73       1
    RHS1      c_disjunction_14_disjunct_2  2
    RHS1      R76       1
    RHS1      c_disjunction_15_disjunct_2  1
    RHS1      R79       1
    RHS1      c_disjunction_16_disjunct_2  6
    RHS1      R82       1
    RHS1      c_disjunction_17_disjunct_2  2
    RHS1      R85       1
    RHS1      c_disjunction_18_disjunct_2  3
    RHS1      R88       1
    RHS1      c_disjunction_19_disjunct_2  4
    RHS1      R91       1
    RHS1      c_disjunction_20_disjunct_2  2
    RHS1      R94       1
    RHS1      c_disjunction_21_disjunct_2  2
    RHS1      R97       1
    RHS1      c_disjunction_22_disjunct_2  4
    RHS1      R100      1
    RHS1      c_disjunction_23_disjunct_2  4
    RHS1      R103      1
    RHS1      c_disjunction_24_disjunct_2  4
    RHS1      R106      1
    RHS1      c_disjunction_25_disjunct_2  2
    RHS1      R109      1
    RHS1      c_disjunction_26_disjunct_2  4
    RHS1      R112      1
    RHS1      c_disjunction_27_disjunct_2  4
    RHS1      R115      1
    RHS1      c_disjunction_28_disjunct_2  2
    RHS1      R118      1
    RHS1      c_disjunction_29_disjunct_2  1
    RHS1      R121      1
    RHS1      c_disjunction_30_disjunct_2  4
    RHS1      R124      1
    RHS1      c_disjunction_31_disjunct_2  4
    RHS1      R127      1
    RHS1      c_disjunction_32_disjunct_2  4
    RHS1      R130      1
    RHS1      c_disjunction_33_disjunct_2  3
    RHS1      R133      1
    RHS1      c_disjunction_34_disjunct_2  4
    RHS1      R136      1
    RHS1      c_disjunction_35_disjunct_2  4
    RHS1      R139      1
BOUNDS
 BV BND1      ind_disjunction_1_disjunct_1
 BV BND1      ind_disjunction_2_disjunct_1
 BV BND1      ind_disjunction_3_disjunct_1
 BV BND1      ind_disjunction_4_disjunct_1
 BV BND1      ind_disjunction_5_disjunct_1
 BV BND1      ind_disjunction_6_disjunct_1
 BV BND1      ind_disjunction_7_disjunct_1
 BV BND1      ind_disjunction_8_disjunct_1
 BV BND1      ind_disjunction_9_disjunct_1
 BV BND1      ind_disjunction_10_disjunct_1
 BV BND1      ind_disjunction_11_disjunct_1
 BV BND1      ind_disjunction_12_disjunct_1
 BV BND1      ind_disjunction_13_disjunct_1
 BV BND1      ind_disjunction_14_disjunct_1
 BV BND1      ind_disjunction_15_disjunct_1
 BV BND1      ind_disjunction_16_disjunct_1
 BV BND1      ind_disjunction_17_disjunct_1
 BV BND1      ind_disjunction_18_disjunct_1
 BV BND1      ind_disjunction_19_disjunct_1
 BV BND1      ind_disjunction_20_disjunct_1
 BV BND1      ind_disjunction_21_disjunct_1
 BV BND1      ind_disjunction_22_disjunct_1
 BV BND1      ind_disjunction_23_disjunct_1
 BV BND1      ind_disjunction_24_disjunct_1
 BV BND1      ind_disjunction_25_disjunct_1
 BV BND1      ind_disjunction_26_disjunct_1
 BV BND1      ind_disjunction_27_disjunct_1
 BV BND1      ind_disjunction_28_disjunct_1
 BV BND1      ind_disjunction_29_disjunct_1
 BV BND1      ind_disjunction_30_disjunct_1
 BV BND1      ind_disjunction_31_disjunct_1
 BV BND1      ind_disjunction_32_disjunct_1
 BV BND1      ind_disjunction_33_disjunct_1
 BV BND1      ind_disjunction_34_disjunct_1
 BV BND1      ind_disjunction_35_disjunct_1
 BV BND1      ind_disjunction_1_disjunct_2
 BV BND1      ind_disjunction_2_disjunct_2
 BV BND1      ind_disjunction_3_disjunct_2
 BV BND1      ind_disjunction_4_disjunct_2
 BV BND1      ind_disjunction_5_disjunct_2
 BV BND1      ind_disjunction_6_disjunct_2
 BV BND1      ind_disjunction_7_disjunct_2
 BV BND1      ind_disjunction_8_disjunct_2
 BV BND1      ind_disjunction_9_disjunct_2
 BV BND1      ind_disjunction_10_disjunct_2
 BV BND1      ind_disjunction_11_disjunct_2
 BV BND1      ind_disjunction_12_disjunct_2
 BV BND1      ind_disjunction_13_disjunct_2
 BV BND1      ind_disjunction_14_disjunct_2
 BV BND1      ind_disjunction_15_disjunct_2
 BV BND1      ind_disjunction_16_disjunct_2
 BV BND1      ind_disjunction_17_disjunct_2
 BV BND1      ind_disjunction_18_disjunct_2
 BV BND1      ind_disjunction_19_disjunct_2
 BV BND1      ind_disjunction_20_disjunct_2
 BV BND1      ind_disjunction_21_disjunct_2
 BV BND1      ind_disjunction_22_disjunct_2
 BV BND1      ind_disjunction_23_disjunct_2
 BV BND1      ind_disjunction_24_disjunct_2
 BV BND1      ind_disjunction_25_disjunct_2
 BV BND1      ind_disjunction_26_disjunct_2
 BV BND1      ind_disjunction_27_disjunct_2
 BV BND1      ind_disjunction_28_disjunct_2
 BV BND1      ind_disjunction_29_disjunct_2
 BV BND1      ind_disjunction_30_disjunct_2
 BV BND1      ind_disjunction_31_disjunct_2
 BV BND1      ind_disjunction_32_disjunct_2
 BV BND1      ind_disjunction_33_disjunct_2
 BV BND1      ind_disjunction_34_disjunct_2
 BV BND1      ind_disjunction_35_disjunct_2
 BV BND1      x[1,1]  
 BV BND1      x[2,1]  
 BV BND1      x[33,1] 
 BV BND1      x[2,2]  
 BV BND1      x[33,2] 
 BV BND1      x[1,2]  
 BV BND1      x[3,3]  
 BV BND1      x[13,3] 
 BV BND1      x[23,3] 
 BV BND1      x[4,4]  
 BV BND1      x[22,4] 
 BV BND1      x[32,4] 
 BV BND1      x[5,5]  
 BV BND1      x[34,5] 
 BV BND1      x[10,5] 
 BV BND1      x[6,6]  
 BV BND1      x[35,6] 
 BV BND1      x[27,6] 
 BV BND1      x[7,7]  
 BV BND1      x[16,7] 
 BV BND1      x[24,7] 
 BV BND1      x[8,8]  
 BV BND1      x[34,8] 
 BV BND1      x[11,8] 
 BV BND1      x[9,9]  
 BV BND1      x[28,9] 
 BV BND1      x[16,9] 
 BV BND1      x[10,10]
 BV BND1      x[34,10]
 BV BND1      x[30,10]
 BV BND1      x[11,11]
 BV BND1      x[8,11] 
 BV BND1      x[26,11]
 BV BND1      x[12,12]
 BV BND1      x[7,12] 
 BV BND1      x[21,12]
 BV BND1      x[13,13]
 BV BND1      x[30,13]
 BV BND1      x[23,13]
 BV BND1      x[14,14]
 BV BND1      x[19,14]
 BV BND1      x[31,14]
 BV BND1      x[15,15]
 BV BND1      x[4,15] 
 BV BND1      x[22,15]
 BV BND1      x[16,16]
 BV BND1      x[18,16]
 BV BND1      x[24,16]
 BV BND1      x[17,17]
 BV BND1      x[31,17]
 BV BND1      x[19,17]
 BV BND1      x[18,18]
 BV BND1      x[24,18]
 BV BND1      x[16,18]
 BV BND1      x[19,19]
 BV BND1      x[14,19]
 BV BND1      x[31,19]
 BV BND1      x[20,20]
 BV BND1      x[25,20]
 BV BND1      x[9,20] 
 BV BND1      x[21,21]
 BV BND1      x[12,21]
 BV BND1      x[2,21] 
 BV BND1      x[22,22]
 BV BND1      x[4,22] 
 BV BND1      x[32,22]
 BV BND1      x[23,23]
 BV BND1      x[30,23]
 BV BND1      x[13,23]
 BV BND1      x[24,24]
 BV BND1      x[18,24]
 BV BND1      x[16,24]
 BV BND1      x[25,25]
 BV BND1      x[20,25]
 BV BND1      x[5,25] 
 BV BND1      x[26,26]
 BV BND1      x[27,26]
 BV BND1      x[35,26]
 BV BND1      x[27,27]
 BV BND1      x[26,27]
 BV BND1      x[35,27]
 BV BND1      x[28,28]
 BV BND1      x[9,28] 
 BV BND1      x[16,28]
 BV BND1      x[29,29]
 BV BND1      x[32,29]
 BV BND1      x[4,29] 
 BV BND1      x[30,30]
 BV BND1      x[23,30]
 BV BND1      x[13,30]
 BV BND1      x[31,31]
 BV BND1      x[17,31]
 BV BND1      x[19,31]
 BV BND1      x[32,32]
 BV BND1      x[22,32]
 BV BND1      x[4,32] 
 BV BND1      x[33,33]
 BV BND1      x[2,33] 
 BV BND1      x[1,33] 
 BV BND1      x[34,34]
 BV BND1      x[10,34]
 BV BND1      x[8,34] 
 BV BND1      x[35,35]
 BV BND1      x[27,35]
 BV BND1      x[26,35]
ENDATA
